n = 28;
k = 4;
roles = [
{g, d},
{d, g},
{f, g},
{f, m},
{g, f},
{g, m},
{g, f},
{m, g},
{g, f},
{g, m},
{d, m},
{m, g},
{d, f},
{g, m},
{f, g},
{g, m},
{d, m},
{m, f},
{m, f},
{d, g},
{m, g},
{g, f},
{f, d},
{m, d},
{m, f},
{m, f},
{d, f},
{f, g}
];
num_pairs = 2;
player1 = [7, 26];
player2 = [6, 3];
